Gurobi Optimizer version 9.1.2 build v9.1.2rc0 (linux64)
Thread count: 36 physical cores, 72 logical processors, using up to 32 threads
Optimize a model with 12 rows, 57 columns and 590 nonzeros
Model fingerprint: 0xf32eec78
Model has 47 quadratic constraints
Coefficient statistics:
  Matrix range     [2e-05, 3e+00]
  QMatrix range    [1e+00, 1e+00]
  QLMatrix range   [1e+00, 1e+00]
  Objective range  [8e-03, 7e-01]
  Bounds range     [1e+00, 1e+00]
  RHS range        [1e+00, 1e+00]
Presolve removed 9 rows and 0 columns

Continuous model is non-convex -- solving as a MIP.

Presolve removed 9 rows and 0 columns
Presolve time: 0.00s
Presolved: 189 rows, 57 columns, 443 nonzeros
Presolved model has 47 bilinear constraint(s)
Variable types: 57 continuous, 0 integer (0 binary)

Root relaxation: objective -1.743721e+00, 44 iterations, 0.00 seconds

    Nodes    |    Current Node    |     Objective Bounds      |     Work
 Expl Unexpl |  Obj  Depth IntInf | Incumbent    BestBd   Gap | It/Node Time

     0     0   -1.74372    0   38          -   -1.74372      -     -    0s
H    0     0                       0.6147548   -1.74372   384%     -    0s
     0     0   -1.64739    0    1    0.61475   -1.64739   368%     -    0s
H    0     0                      -1.6450460   -1.64739  0.14%     -    0s
     0     0     cutoff    0        -1.64505   -1.64505  0.00%     -    0s

Cutting planes:
  RLT: 25
  BQP: 3

Explored 1 nodes (76 simplex iterations) in 0.01 seconds
Thread count was 32 (of 72 available processors)

Solution count 2: -1.64505 0.614755 
No other solutions better than -1.64505

Optimal solution found (tolerance 1.00e-04)
Best objective -1.645045978473e+00, best bound -1.645045978473e+00, gap 0.0000%

User-callback calls 78, time in user-callback 0.00 sec
Gurobi Optimizer version 9.1.2 build v9.1.2rc0 (linux64)
Thread count: 36 physical cores, 72 logical processors, using up to 32 threads
Optimize a model with 60 rows, 312 columns and 16100 nonzeros
Model fingerprint: 0x678c3dde
Model has 262 quadratic constraints
Coefficient statistics:
  Matrix range     [4e-07, 7e+00]
  QMatrix range    [1e+00, 1e+00]
  QLMatrix range   [1e+00, 1e+00]
  Objective range  [5e-03, 1e+00]
  Bounds range     [1e+00, 1e+00]
  RHS range        [1e+00, 1e+00]
Presolve removed 16 rows and 0 columns

Continuous model is non-convex -- solving as a MIP.

Presolve removed 16 rows and 0 columns
Presolve time: 0.01s
Presolved: 1080 rows, 312 columns, 13137 nonzeros
Presolved model has 262 bilinear constraint(s)
Variable types: 312 continuous, 0 integer (0 binary)

Root relaxation: objective -2.705772e+01, 310 iterations, 0.01 seconds

    Nodes    |    Current Node    |     Objective Bounds      |     Work
 Expl Unexpl |  Obj  Depth IntInf | Incumbent    BestBd   Gap | It/Node Time

     0     0  -27.05772    0  147          -  -27.05772      -     -    0s
     0     0  -25.65963    0   75          -  -25.65963      -     -    0s
     0     0  -25.61438    0   70          -  -25.61438      -     -    0s
     0     0  -25.56900    0   80          -  -25.56900      -     -    0s
     0     0  -25.56788    0   80          -  -25.56788      -     -    0s
     0     0  -25.56287    0   80          -  -25.56287      -     -    0s
     0     0  -25.56198    0   80          -  -25.56198      -     -    0s
     0     0  -25.56114    0   75          -  -25.56114      -     -    0s
     0     0  -25.56112    0   80          -  -25.56112      -     -    0s
     0     0  -25.55972    0   80          -  -25.55972      -     -    0s
     0     0  -25.55971    0   80          -  -25.55971      -     -    0s
     0     0  -25.55971    0   80          -  -25.55971      -     -    0s
     0     2  -25.55971    0   80          -  -25.55971      -     -    0s
* 2228  1992              55     -24.1075872  -24.61882  2.12%  41.6    1s
* 2428  1706              56     -24.1075916  -24.61036  2.09%  39.5    1s
* 2896  1863              58     -24.1084877  -24.46035  1.46%  41.3    1s
* 5775   659              80     -24.1278343  -24.46035  1.38%  42.1    3s
 10315   997  -24.13133   32   46  -24.12783  -24.28365  0.65%  35.3    5s
*15260  1143              66     -24.1279061  -24.21075  0.34%  30.9    5s
*15921  1183              66     -24.1279069  -24.21075  0.34%  30.2    6s
*15923  1183              66     -24.1279109  -24.21075  0.34%  30.2    6s
*15924  1183              66     -24.1279124  -24.21075  0.34%  30.2    6s
*15926  1183              65     -24.1279782  -24.21075  0.34%  30.2    6s
*15929  1183              64     -24.1283016  -24.21075  0.34%  30.2    6s
*16372  1244              67     -24.1284015  -24.18839  0.25%  29.9    6s
*17081  1290              61     -24.1284018  -24.17477  0.19%  29.4    6s
*17083  1290              62     -24.1284206  -24.17477  0.19%  29.4    6s
*17084  1290              62     -24.1284207  -24.17477  0.19%  29.4    6s
*18171  1298              65     -24.1284537  -24.16765  0.16%  28.8    6s
*18172  1298              65     -24.1284613  -24.16765  0.16%  28.8    6s
*18178  1298              66     -24.1284692  -24.16765  0.16%  28.8    6s
*19672  1538              65     -24.1287101  -24.16232  0.14%  27.7    6s
*19678  1538              66     -24.1294186  -24.16232  0.14%  27.7    6s
*21006  1576              65     -24.1301840  -24.15484  0.10%  26.9    6s
*22589  1634              58     -24.1302819  -24.14801  0.07%  26.0    7s
*23858  1685              64     -24.1303492  -24.14370  0.06%  25.2    7s
*23860  1685              65     -24.1303498  -24.14370  0.06%  25.2    7s
*24675  1803              66     -24.1308178  -24.14260  0.05%  24.7    7s
*24676  1803              66     -24.1308550  -24.14260  0.05%  24.7    7s
*24681  1803              67     -24.1308633  -24.14260  0.05%  24.7    7s
*24685  1803              70     -24.1309443  -24.14260  0.05%  24.7    7s
*24686  1803              70     -24.1309534  -24.14260  0.05%  24.7    7s
*24687  1803              69     -24.1310201  -24.14260  0.05%  24.7    7s
*24692  1803              69     -24.1310202  -24.14260  0.05%  24.7    7s
*26834  1799              66     -24.1310371  -24.13969  0.04%  23.5    8s
*26917  1799              67     -24.1311519  -24.13927  0.03%  23.5    8s
*26919  1799              66     -24.1311938  -24.13927  0.03%  23.5    8s
*26924  1799              68     -24.1312534  -24.13927  0.03%  23.5    8s
*26926  1799              66     -24.1312710  -24.13927  0.03%  23.5    8s
*26965  1799              70     -24.1313572  -24.13911  0.03%  23.5    8s
*28122  1669              65     -24.1313766  -24.13831  0.03%  22.9    8s
*28322  1669              63     -24.1314701  -24.13797  0.03%  22.8    8s
*29435  1679              67     -24.1315106  -24.13703  0.02%  22.2    8s
*29436  1679              67     -24.1315131  -24.13703  0.02%  22.2    8s
*29763  1679              71     -24.1315682  -24.13665  0.02%  22.1    8s
*29764  1679              71     -24.1315706  -24.13665  0.02%  22.1    8s
*29766  1679              69     -24.1316211  -24.13665  0.02%  22.1    8s

Explored 34441 nodes (695928 simplex iterations) in 9.08 seconds
Thread count was 32 (of 72 available processors)

Solution count 10: -24.1316 -24.1316 -24.1316 ... -24.1313

Optimal solution found (tolerance 1.00e-04)
Best objective -2.413162105269e+01, best bound -2.413347982056e+01, gap 0.0077%

User-callback calls 69959, time in user-callback 0.01 sec



objective value: -24.131621052689866
objective bound: -24.133479820560858
x_opt: [1.0, 0.9305036217894237, 0.0, 0.3783040774822703, 0.0, 0.0, 1.0, 0.0, 0.0, 0.0, 1.0, 0.0, 1.0, 1.0, 0.44085631747074344, 1.0, 0.0, 1.0, 0.0, 0.0, 0.0, 0.19529217166278476, 0.0, 0.5426296229493853, 0.0, 0.6489328151433638, 0.0, 1.0, 0.0, 0.0, 1.0, 1.0, 0.0, 0.5790202973525708, 1.0, 0.9034942186361118, 0.0, 1.0, 0.0, 1.0, 1.0, 0.0, 0.9317381065329133, 0.09710081231305172, 0.003089907117276684, 0.0, 0.3977289511339568, 0.4103626950640184, 0.16479320331859254, 0.0]
GUROBI solution time: 9.079704999923706




